16 32
1 2 1
1 5 4
2 3 2
2 6 4
3 4 1
3 7 4
4 8 5
5 6 4
5 9 1
6 7 4
6 10 1
7 8 4
7 11 4
8 12 2
9 10 4
9 13 3
10 11 1
10 14 4
11 12 2
11 15 3
12 16 5
13 14 5
14 15 3
15 16 2
1 13 1
2 14 2
3 15 3
4 16 4
1 4 4
5 8 1
9 12 1
13 16 3
